StudentsNr = 10;
InstructorsNr = 64;
DaysNr = 2;
SlotsPerDay = 60;
AvailabilitySlotsLenght = 20;
RoomNr = 1;
ProgrammNr = 1;
DegreeNr = 2;
RolesNr = 3;
CoursesNr = 3;
InstructorsProgramm = [{1}, {1}, {1}, {1}, {1}, {1}, {1}, {1}, {1}, {1}, {1}, {1}, {1}, {1}, {1}, {1}, {1}, {1}, {1}, {1}, {1}, {1}, {1}, {1}, {1}, {1}, {1}, {1}, {1}, {1}, {1}, {1}, {1}, {1}, {1}, {1}, {1}, {1}, {1}, {1}, {1}, {1}, {1}, {1}, {1}, {1}, {1}, {1}, {1}, {1}, {1}, {1}, {1}, {1}, {1}, {1}, {1}, {1}, {1}, {1}, {1}, {1}, {1}, {1}];
InstructorRolesPerProgramm = [|{4, 6, 8, 10, 11, 13, 16, 21, 22, 24, 25, 27, 30, 33, 34, 36, 38, 40, 43, 45, 46, 53, 54, 60}, {1, 7, 9, 10, 12, 14, 19, 20, 26, 30, 32, 35, 38, 41, 42, 45, 48, 54, 56, 60, 61, 62, 64}, {1, 4, 5, 7, 11, 14, 24, 25, 27, 31, 32, 35, 37, 39, 40, 41, 42, 46, 47, 48, 54, 56, 57, 59, 61, 64}|];
InstructorsAvailability = [|0, 0, 0, 0, 0, 1, |0, 0, 0, 0, 1, 1, |1, 0, 1, 0, 1, 1, |0, 0, 1, 1, 1, 1, |1, 1, 1, 1, 1, 0, |1, 1, 0, 1, 1, 1, |1, 1, 1, 1, 1, 1, |1, 1, 1, 0, 0, 0, |1, 1, 1, 1, 1, 1, |0, 0, 1, 1, 1, 1, |1, 1, 0, 1, 1, 1, |0, 1, 1, 1, 0, 0, |0, 1, 1, 1, 0, 1, |1, 1, 1, 1, 0, 0, |0, 1, 1, 1, 1, 1, |0, 0, 0, 0, 1, 1, |1, 1, 1, 1, 0, 1, |0, 1, 1, 1, 1, 1, |0, 0, 1, 1, 1, 0, |1, 0, 0, 1, 1, 1, |1, 1, 1, 1, 1, 1, |0, 1, 1, 1, 1, 0, |0, 0, 0, 0, 0, 1, |1, 1, 1, 0, 0, 1, |0, 1, 1, 1, 1, 1, |0, 1, 1, 1, 1, 1, |0, 1, 1, 1, 1, 1, |0, 0, 1, 1, 1, 1, |0, 1, 1, 1, 1, 0, |0, 1, 0, 1, 1, 1, |1, 1, 1, 0, 1, 1, |1, 1, 1, 1, 1, 1, |0, 1, 1, 1, 1, 0, |0, 1, 1, 1, 1, 1, |0, 1, 0, 1, 1, 1, |1, 1, 1, 1, 1, 1, |1, 1, 1, 1, 1, 0, |0, 1, 0, 1, 1, 1, |1, 0, 1, 0, 0, 1, |1, 1, 1, 0, 1, 1, |0, 1, 0, 0, 1, 1, |0, 1, 1, 1, 1, 1, |1, 1, 1, 1, 1, 1, |1, 1, 1, 1, 1, 1, |0, 1, 1, 1, 1, 1, |1, 1, 0, 1, 0, 1, |1, 1, 1, 0, 0, 0, |0, 1, 1, 1, 1, 1, |1, 0, 0, 0, 0, 0, |0, 1, 1, 1, 0, 1, |0, 0, 0, 1, 1, 1, |0, 1, 1, 1, 1, 1, |1, 1, 0, 1, 1, 0, |0, 1, 1, 0, 0, 1, |0, 1, 1, 1, 1, 1, |0, 1, 1, 1, 1, 1, |1, 1, 1, 1, 1, 1, |0, 0, 1, 1, 1, 0, |0, 0, 1, 1, 0, 0, |1, 1, 1, 1, 1, 1, |0, 0, 1, 1, 1, 1, |1, 1, 1, 1, 1, 1, |0, 1, 1, 1, 1, 1, |0, 1, 1, 1, 1, 1|];
StudentsProgramm = [1, 1, 1, 1, 1, 1, 1, 1, 1, 1];
StudentsDegree = [1, 1, 1, 2, 2, 2, 1, 2, 1, 2];
StudentsSupervisorId = [42, 31, 54, 25, 30, 8, 44, 35, 54, 11];
StudentsCourseIds = [{}, {}, {}, {}, {}, {}, {}, {}, {}, {}];
StudentsAvailability = [|0, 1, 1, 1, 1, 1, |0, 0, 1, 1, 1, 1, |1, 1, 1, 1, 1, 1, |1, 1, 1, 1, 1, 1, |0, 0, 1, 1, 1, 1, |0, 1, 1, 1, 1, 1, |0, 1, 1, 1, 1, 0, |1, 1, 1, 1, 1, 1, |0, 1, 1, 1, 1, 1, |1, 1, 1, 1, 1, 1|];
TheoryticalMinCard = [0, 0, 0, 0, 0, 0, 1, 0, 0, 0];
CoursesInstructorIds = [{3, 6, 7, 9, 17, 21, 29, 30, 35, 37, 38, 41, 42, 47, 54, 55, 58, 62}, {17, 23, 42, 45, 47, 50, 54, 56, 61}, {2, 3, 4, 7, 10, 11, 12, 13, 14, 16, 18, 19, 20, 25, 26, 31, 35, 37, 39, 40, 45, 48, 50, 51, 53, 54, 55, 56, 57, 58, 60}];
RolesDemands = [3, 4, 22];
RolesContinuity = [];
ExamLen = [2, 2, 2, 2, 2, 2, 2, 2, 2, 2];
LunchTsMinLen = 0;
LunchStarts = [15..38, 82..94];
SupervisorAvailable = 5;
OptimalLunchLenght = [3, 0];
OptimalStartTs = [2, 1];
OptimalFinishTs = [1, 59];
MinimizeRooms = 300;
RolesSoftContinuity = [|1, 2, 3|3, 0, 0|];
SameDegreeInRoom = 20;
Mergeability = 2;
